17	4	3
18	25	11	17	26	31	14	
0	0	0	0	0	2	6	2	4	1	6	3	2	3	4
7	0	0	10	0	6	1	9	6	7	10	2	10	17
8	0	8	0	0	8	8	5	9	6	1	3	6	7	14
9	8	0	0	0	10	7	6	1	5	3	3	5	12	17
3	0	3	0	0	9	8	4	1	6	10	2	14	17
150	0	0	10	0	1	7	6	3	10	7	2	15	17
100	0	0	1	0	8	5	7	6	1	3	3	8	13	15
150	0	0	0	3	6	8	10	10	7	6	3	9	11	17
200	0	0	1	0	10	7	2	6	7	7	2	17	17
50	6	0	0	0	9	6	4	2	6	10	3	11	15	16
125	0	0	10	0	1	7	6	7	9	6	2	17	17
200	0	8	0	0	3	6	1	10	2	1	2	14	17
4	0	7	0	0	2	7	9	2	7	5	2	16	17
10	0	7	0	0	8	6	1	10	2	7	1	17
4	0	10	0	0	6	10	3	10	1	8	1	17
4	0	0	0	6	10	2	4	5	8	3	1	17
0	0	0	0	0	1	1	8	1	10	9	0
